num_offers = 35;
num_halls = 10;
start=[32,86,61,8,81,32,45,32,88,73,22,37,56,2,6,54,13,28,28,19,43,9,61,2,42,8,15,13,51,28,52,59,2,45,43];
end=[63,90,67,23,88,46,80,77,90,81,45,71,68,17,93,64,74,89,42,21,53,19,63,68,79,84,72,57,73,73,91,99,67,65,83];
price=[1054,447,345,1119,512,1334,1874,665,288,653,1482,1961,1153,544,3793,758,995,2934,1424,46,303,115,65,3872,3708,1583,4411,2739,2111,4518,2274,3888,1523,267,1714];
requirement=[438,953,622,291,485,766,585,610,935,394,332,701,953,787,244,588,428,216,802,518,615,999,996,867,907,715,615,811,789,387,537,465,300,409,629];
capacity=[578,322,376,459,507,592,782,811,932,758];
